gen	cost
1	1462
2	1457
3	1417
4	1415
5	1389
6	1374
7	1365
8	1343
9	1340
10	1336
11	1332
12	1325
13	1306
14	1298
15	1286
16	1274
17	1251
18	1250
19	1247
20	1244
21	1237
22	1234
23	1230
24	1222
25	1210
26	1193
27	1189
28	1185
29	1182
30	1175
31	1172
32	1172
33	1170
34	1164
35	1161
36	1161
37	1158
38	1157
39	1154
40	1152
41	1148
42	1148
43	1147
44	1147
45	1145
46	1143
47	1143
48	1143
49	1143
50	1143

